50
1 0 5
2 0 5
2 1 2
3 0 1
3 1 2
3 2 4
4 0 1
4 1 5
4 2 1
4 3 5
5 0 2
5 1 5
5 2 4
5 3 4
5 4 5
6 0 1
6 1 2
6 2 4
6 3 2
6 4 5
6 5 3
7 0 3
7 1 4
7 2 1
7 3 1
7 4 2
7 5 2
7 6 4
8 0 1
8 1 2
8 2 1
8 3 2
8 4 3
8 5 1
8 6 4
8 7 4
9 0 4
9 1 5
9 2 4
9 3 1
9 4 3
9 5 4
9 6 3
9 7 1
9 8 1
10 0 4
10 1 5
10 2 1
10 3 4
10 4 1
10 5 4
10 6 4
10 7 1
10 8 4
10 9 1
11 0 1
11 1 2
11 2 2
11 3 5
11 4 4
11 5 2
11 6 5
11 7 3
11 8 5
11 9 4
11 10 1
12 0 2
12 1 3
12 2 1
12 3 3
12 4 5
12 5 1
12 6 4
12 7 2
12 8 5
12 9 4
12 10 2
12 11 1
13 0 4
13 1 4
13 2 5
13 3 5
13 4 1
13 5 1
13 6 5
13 7 2
13 8 1
13 9 4
13 10 4
13 11 4
13 12 5
14 0 4
14 1 5
14 2 4
14 3 5
14 4 2
14 5 3
14 6 3
14 7 4
14 8 3
14 9 2
14 10 4
14 11 3
14 12 4
14 13 5
15 0 1
15 1 2
15 2 4
15 3 2
15 4 3
15 5 1
15 6 2
15 7 2
15 8 1
15 9 3
15 10 2
15 11 3
15 12 4
15 13 5
15 14 1
16 0 5
16 1 3
16 2 4
16 3 5
16 4 5
16 5 3
16 6 1
16 7 5
16 8 2
16 9 5
16 10 1
16 11 3
16 12 3
16 13 5
16 14 5
16 15 5
17 0 1
17 1 3
17 2 4
17 3 5
17 4 1
17 5 5
17 6 3
17 7 4
17 8 1
17 9 5
17 10 3
17 11 5
17 12 2
17 13 3
17 14 1
17 15 5
17 16 3
18 0 2
18 1 1
18 2 1
18 3 2
18 4 3
18 5 5
18 6 4
18 7 1
18 8 4
18 9 4
18 10 4
18 11 5
18 12 1
18 13 3
18 14 1
18 15 5
18 16 3
18 17 3
19 0 4
19 1 3
19 2 4
19 3 3
19 4 4
19 5 1
19 6 4
19 7 2
19 8 5
19 9 3
19 10 1
19 11 2
19 12 1
19 13 2
19 14 3
19 15 3
19 16 5
19 17 2
19 18 4
20 0 1
20 1 4
20 2 1
20 3 5
20 4 5
20 5 3
20 6 5
20 7 4
20 8 2
20 9 4
20 10 2
20 11 3
20 12 1
20 13 4
20 14 2
20 15 3
20 16 5
20 17 2
20 18 5
20 19 1
21 0 4
21 1 3
21 2 1
21 3 2
21 4 3
21 5 2
21 6 1
21 7 5
21 8 1
21 9 3
21 10 4
21 11 3
21 12 2
21 13 3
21 14 1
21 15 3
21 16 2
21 17 5
21 18 4
21 19 2
21 20 3
22 0 5
22 1 1
22 2 4
22 3 5
22 4 3
22 5 1
22 6 4
22 7 3
22 8 4
22 9 3
22 10 5
22 11 3
22 12 2
22 13 5
22 14 3
22 15 1
22 16 5
22 17 1
22 18 1
22 19 2
22 20 5
22 21 3
23 0 4
23 1 4
23 2 2
23 3 4
23 4 4
23 5 4
23 6 4
23 7 4
23 8 4
23 9 3
23 10 5
23 11 1
23 12 2
23 13 4
23 14 3
23 15 2
23 16 2
23 17 5
23 18 5
23 19 2
23 20 5
23 21 5
23 22 3
24 0 4
24 1 2
24 2 4
24 3 4
24 4 1
24 5 1
24 6 5
24 7 5
24 8 1
24 9 4
24 10 4
24 11 2
24 12 5
24 13 3
24 14 2
24 15 5
24 16 1
24 17 1
24 18 2
24 19 5
24 20 1
24 21 1
24 22 2
24 23 5
25 0 3
25 1 2
25 2 3
25 3 3
25 4 1
25 5 5
25 6 2
25 7 1
25 8 2
25 9 1
25 10 2
25 11 4
25 12 4
25 13 4
25 14 5
25 15 3
25 16 1
25 17 1
25 18 2
25 19 3
25 20 5
25 21 1
25 22 5
25 23 2
25 24 4
26 0 1
26 1 4
26 2 2
26 3 1
26 4 1
26 5 1
26 6 4
26 7 1
26 8 2
26 9 5
26 10 3
26 11 4
26 12 3
26 13 5
26 14 2
26 15 3
26 16 3
26 17 1
26 18 5
26 19 2
26 20 1
26 21 4
26 22 5
26 23 1
26 24 4
26 25 2
27 0 1
27 1 2
27 2 2
27 3 3
27 4 3
27 5 3
27 6 5
27 7 1
27 8 3
27 9 5
27 10 1
27 11 5
27 12 2
27 13 5
27 14 3
27 15 5
27 16 1
27 17 1
27 18 5
27 19 1
27 20 4
27 21 4
27 22 4
27 23 4
27 24 5
27 25 2
27 26 4
28 0 1
28 1 2
28 2 3
28 3 5
28 4 2
28 5 5
28 6 4
28 7 2
28 8 5
28 9 2
28 10 1
28 11 1
28 12 3
28 13 3
28 14 1
28 15 5
28 16 5
28 17 4
28 18 5
28 19 2
28 20 4
28 21 3
28 22 4
28 23 2
28 24 5
28 25 4
28 26 5
28 27 1
29 0 5
29 1 1
29 2 4
29 3 3
29 4 4
29 5 2
29 6 5
29 7 4
29 8 3
29 9 5
29 10 5
29 11 3
29 12 3
29 13 5
29 14 1
29 15 3
29 16 5
29 17 1
29 18 3
29 19 1
29 20 1
29 21 2
29 22 3
29 23 4
29 24 3
29 25 5
29 26 1
29 27 1
29 28 3
30 0 3
30 1 5
30 2 1
30 3 1
30 4 2
30 5 2
30 6 4
30 7 2
30 8 2
30 9 2
30 10 3
30 11 1
30 12 4
30 13 2
30 14 4
30 15 5
30 16 5
30 17 4
30 18 5
30 19 5
30 20 2
30 21 1
30 22 4
30 23 5
30 24 5
30 25 5
30 26 1
30 27 2
30 28 3
30 29 2
31 0 1
31 1 2
31 2 5
31 3 5
31 4 2
31 5 5
31 6 3
31 7 1
31 8 3
31 9 5
31 10 4
31 11 2
31 12 5
31 13 2
31 14 2
31 15 1
31 16 2
31 17 4
31 18 3
31 19 2
31 20 4
31 21 4
31 22 3
31 23 2
31 24 3
31 25 3
31 26 1
31 27 4
31 28 4
31 29 3
31 30 2
32 0 1
32 1 1
32 2 4
32 3 5
32 4 3
32 5 4
32 6 1
32 7 5
32 8 4
32 9 4
32 10 5
32 11 1
32 12 4
32 13 2
32 14 4
32 15 2
32 16 1
32 17 1
32 18 2
32 19 3
32 20 1
32 21 2
32 22 5
32 23 3
32 24 4
32 25 3
32 26 5
32 27 2
32 28 1
32 29 5
32 30 3
32 31 3
33 0 3
33 1 4
33 2 5
33 3 5
33 4 1
33 5 1
33 6 2
33 7 5
33 8 2
33 9 1
33 10 2
33 11 1
33 12 4
33 13 5
33 14 1
33 15 2
33 16 5
33 17 5
33 18 1
33 19 1
33 20 3
33 21 3
33 22 5
33 23 3
33 24 3
33 25 3
33 26 1
33 27 1
33 28 3
33 29 2
33 30 3
33 31 3
33 32 2
34 0 2
34 1 2
34 2 3
34 3 1
34 4 3
34 5 4
34 6 3
34 7 4
34 8 5
34 9 5
34 10 2
34 11 1
34 12 4
34 13 4
34 14 2
34 15 4
34 16 5
34 17 5
34 18 5
34 19 5
34 20 5
34 21 3
34 22 2
34 23 2
34 24 2
34 25 4
34 26 5
34 27 4
34 28 2
34 29 1
34 30 1
34 31 2
34 32 2
34 33 2
35 0 4
35 1 3
35 2 4
35 3 4
35 4 1
35 5 4
35 6 3
35 7 3
35 8 2
35 9 5
35 10 1
35 11 1
35 12 3
35 13 5
35 14 2
35 15 4
35 16 3
35 17 1
35 18 1
35 19 1
35 20 3
35 21 4
35 22 5
35 23 5
35 24 2
35 25 3
35 26 5
35 27 3
35 28 1
35 29 3
35 30 4
35 31 5
35 32 2
35 33 3
35 34 5
36 0 4
36 1 3
36 2 2
36 3 5
36 4 2
36 5 3
36 6 1
36 7 3
36 8 5
36 9 5
36 10 5
36 11 5
36 12 1
36 13 2
36 14 1
36 15 4
36 16 1
36 17 4
36 18 3
36 19 2
36 20 1
36 21 4
36 22 5
36 23 5
36 24 2
36 25 5
36 26 5
36 27 4
36 28 3
36 29 2
36 30 5
36 31 3
36 32 2
36 33 4
36 34 1
36 35 5
37 0 5
37 1 5
37 2 1
37 3 3
37 4 2
37 5 3
37 6 5
37 7 4
37 8 2
37 9 2
37 10 2
37 11 1
37 12 2
37 13 4
37 14 3
37 15 4
37 16 5
37 17 4
37 18 3
37 19 1
37 20 4
37 21 3
37 22 1
37 23 3
37 24 5
37 25 3
37 26 4
37 27 2
37 28 1
37 29 3
37 30 3
37 31 5
37 32 5
37 33 5
37 34 2
37 35 1
37 36 5
38 0 2
38 1 4
38 2 3
38 3 4
38 4 3
38 5 3
38 6 1
38 7 4
38 8 3
38 9 1
38 10 1
38 11 3
38 12 4
38 13 2
38 14 1
38 15 5
38 16 1
38 17 1
38 18 3
38 19 3
38 20 2
38 21 3
38 22 4
38 23 5
38 24 1
38 25 1
38 26 4
38 27 4
38 28 1
38 29 4
38 30 3
38 31 4
38 32 1
38 33 5
38 34 2
38 35 1
38 36 4
38 37 5
39 0 3
39 1 2
39 2 2
39 3 5
39 4 2
39 5 3
39 6 2
39 7 5
39 8 3
39 9 2
39 10 5
39 11 4
39 12 1
39 13 5
39 14 5
39 15 3
39 16 1
39 17 2
39 18 4
39 19 4
39 20 1
39 21 1
39 22 3
39 23 1
39 24 5
39 25 3
39 26 5
39 27 2
39 28 3
39 29 4
39 30 3
39 31 3
39 32 4
39 33 5
39 34 2
39 35 2
39 36 1
39 37 3
39 38 4
40 0 2
40 1 1
40 2 1
40 3 3
40 4 3
40 5 3
40 6 5
40 7 2
40 8 2
40 9 4
40 10 4
40 11 4
40 12 4
40 13 2
40 14 2
40 15 2
40 16 5
40 17 2
40 18 5
40 19 4
40 20 3
40 21 3
40 22 2
40 23 4
40 24 5
40 25 5
40 26 4
40 27 4
40 28 5
40 29 2
40 30 4
40 31 5
40 32 3
40 33 4
40 34 5
40 35 2
40 36 1
40 37 2
40 38 4
40 39 3
41 0 2
41 1 4
41 2 3
41 3 5
41 4 1
41 5 3
41 6 3
41 7 2
41 8 3
41 9 5
41 10 4
41 11 5
41 12 2
41 13 3
41 14 1
41 15 4
41 16 4
41 17 4
41 18 5
41 19 2
41 20 1
41 21 5
41 22 4
41 23 5
41 24 5
41 25 3
41 26 1
41 27 5
41 28 3
41 29 4
41 30 1
41 31 4
41 32 5
41 33 3
41 34 2
41 35 3
41 36 3
41 37 1
41 38 3
41 39 1
41 40 4
42 0 1
42 1 1
42 2 1
42 3 4
42 4 1
42 5 3
42 6 2
42 7 1
42 8 3
42 9 1
42 10 2
42 11 3
42 12 5
42 13 5
42 14 1
42 15 4
42 16 5
42 17 3
42 18 1
42 19 3
42 20 2
42 21 3
42 22 4
42 23 5
42 24 2
42 25 2
42 26 2
42 27 5
42 28 4
42 29 2
42 30 4
42 31 2
42 32 3
42 33 5
42 34 1
42 35 5
42 36 3
42 37 4
42 38 4
42 39 1
42 40 1
42 41 4
43 0 5
43 1 3
43 2 4
43 3 5
43 4 2
43 5 4
43 6 4
43 7 5
43 8 2
43 9 2
43 10 1
43 11 1
43 12 4
43 13 2
43 14 3
43 15 5
43 16 2
43 17 4
43 18 3
43 19 5
43 20 3
43 21 1
43 22 2
43 23 5
43 24 3
43 25 2
43 26 5
43 27 3
43 28 5
43 29 5
43 30 1
43 31 2
43 32 5
43 33 2
43 34 2
43 35 3
43 36 4
43 37 3
43 38 1
43 39 3
43 40 5
43 41 4
43 42 2
44 0 1
44 1 1
44 2 1
44 3 2
44 4 5
44 5 2
44 6 5
44 7 5
44 8 2
44 9 3
44 10 5
44 11 5
44 12 1
44 13 2
44 14 1
44 15 5
44 16 3
44 17 2
44 18 5
44 19 2
44 20 3
44 21 2
44 22 4
44 23 2
44 24 2
44 25 1
44 26 5
44 27 4
44 28 3
44 29 5
44 30 5
44 31 5
44 32 3
44 33 3
44 34 2
44 35 2
44 36 3
44 37 1
44 38 2
44 39 3
44 40 1
44 41 2
44 42 2
44 43 4
45 0 2
45 1 4
45 2 3
45 3 4
45 4 5
45 5 1
45 6 4
45 7 1
45 8 3
45 9 4
45 10 5
45 11 5
45 12 4
45 13 5
45 14 5
45 15 1
45 16 3
45 17 1
45 18 5
45 19 4
45 20 2
45 21 1
45 22 4
45 23 2
45 24 4
45 25 5
45 26 4
45 27 2
45 28 4
45 29 4
45 30 3
45 31 3
45 32 4
45 33 4
45 34 2
45 35 3
45 36 5
45 37 4
45 38 1
45 39 5
45 40 2
45 41 2
45 42 4
45 43 5
45 44 4
46 0 4
46 1 2
46 2 2
46 3 4
46 4 3
46 5 2
46 6 3
46 7 4
46 8 2
46 9 1
46 10 2
46 11 1
46 12 2
46 13 3
46 14 1
46 15 4
46 16 4
46 17 3
46 18 1
46 19 4
46 20 5
46 21 1
46 22 2
46 23 2
46 24 4
46 25 5
46 26 5
46 27 1
46 28 5
46 29 3
46 30 1
46 31 2
46 32 4
46 33 5
46 34 4
46 35 1
46 36 5
46 37 4
46 38 5
46 39 4
46 40 4
46 41 4
46 42 5
46 43 1
46 44 1
46 45 2
47 0 5
47 1 5
47 2 4
47 3 1
47 4 2
47 5 2
47 6 2
47 7 2
47 8 3
47 9 4
47 10 1
47 11 2
47 12 2
47 13 3
47 14 3
47 15 2
47 16 1
47 17 1
47 18 1
47 19 5
47 20 1
47 21 1
47 22 1
47 23 3
47 24 2
47 25 4
47 26 2
47 27 3
47 28 5
47 29 2
47 30 4
47 31 5
47 32 4
47 33 4
47 34 5
47 35 4
47 36 4
47 37 2
47 38 3
47 39 2
47 40 5
47 41 1
47 42 1
47 43 2
47 44 1
47 45 4
47 46 4
48 0 2
48 1 1
48 2 3
48 3 4
48 4 3
48 5 1
48 6 2
48 7 3
48 8 5
48 9 3
48 10 4
48 11 1
48 12 1
48 13 4
48 14 2
48 15 1
48 16 1
48 17 5
48 18 3
48 19 1
48 20 1
48 21 2
48 22 3
48 23 1
48 24 3
48 25 2
48 26 4
48 27 3
48 28 3
48 29 3
48 30 3
48 31 3
48 32 1
48 33 1
48 34 1
48 35 4
48 36 2
48 37 4
48 38 3
48 39 3
48 40 2
48 41 3
48 42 3
48 43 5
48 44 3
48 45 2
48 46 4
48 47 5
49 0 4
49 1 5
49 2 2
49 3 1
49 4 3
49 5 3
49 6 1
49 7 5
49 8 1
49 9 5
49 10 5
49 11 3
49 12 1
49 13 4
49 14 1
49 15 4
49 16 1
49 17 2
49 18 2
49 19 3
49 20 4
49 21 4
49 22 3
49 23 1
49 24 4
49 25 1
49 26 4
49 27 3
49 28 2
49 29 4
49 30 4
49 31 2
49 32 2
49 33 1
49 34 4
49 35 1
49 36 1
49 37 3
49 38 1
49 39 5
49 40 5
49 41 1
49 42 1
49 43 3
49 44 5
49 45 3
49 46 5
49 47 2
49 48 2
